Gurobi Optimizer version 9.1.2 build v9.1.2rc0 (linux64)
Thread count: 36 physical cores, 72 logical processors, using up to 32 threads
Optimize a model with 12 rows, 57 columns and 590 nonzeros
Model fingerprint: 0xf32eec78
Model has 47 quadratic constraints
Coefficient statistics:
  Matrix range     [2e-05, 3e+00]
  QMatrix range    [1e+00, 1e+00]
  QLMatrix range   [1e+00, 1e+00]
  Objective range  [8e-03, 7e-01]
  Bounds range     [1e+00, 1e+00]
  RHS range        [1e+00, 1e+00]
Presolve removed 9 rows and 0 columns

Continuous model is non-convex -- solving as a MIP.

Presolve removed 9 rows and 0 columns
Presolve time: 0.00s
Presolved: 189 rows, 57 columns, 443 nonzeros
Presolved model has 47 bilinear constraint(s)
Variable types: 57 continuous, 0 integer (0 binary)

Root relaxation: objective -1.743721e+00, 44 iterations, 0.00 seconds

    Nodes    |    Current Node    |     Objective Bounds      |     Work
 Expl Unexpl |  Obj  Depth IntInf | Incumbent    BestBd   Gap | It/Node Time

     0     0   -1.74372    0   38          -   -1.74372      -     -    0s
H    0     0                       0.6147548   -1.74372   384%     -    0s
     0     0   -1.64739    0    1    0.61475   -1.64739   368%     -    0s
H    0     0                      -1.6450460   -1.64739  0.14%     -    0s
     0     0     cutoff    0        -1.64505   -1.64505  0.00%     -    0s

Cutting planes:
  RLT: 25
  BQP: 3

Explored 1 nodes (76 simplex iterations) in 0.01 seconds
Thread count was 32 (of 72 available processors)

Solution count 2: -1.64505 0.614755 
No other solutions better than -1.64505

Optimal solution found (tolerance 1.00e-04)
Best objective -1.645045978473e+00, best bound -1.645045978473e+00, gap 0.0000%

User-callback calls 78, time in user-callback 0.00 sec
Gurobi Optimizer version 9.1.2 build v9.1.2rc0 (linux64)
Thread count: 36 physical cores, 72 logical processors, using up to 32 threads
Optimize a model with 24 rows, 120 columns and 2480 nonzeros
Model fingerprint: 0x67ae1a2b
Model has 100 quadratic constraints
Coefficient statistics:
  Matrix range     [8e-06, 4e+00]
  QMatrix range    [1e+00, 1e+00]
  QLMatrix range   [1e+00, 1e+00]
  Objective range  [8e-03, 2e+00]
  Bounds range     [1e+00, 1e+00]
  RHS range        [1e+00, 1e+00]
Presolve removed 16 rows and 0 columns

Continuous model is non-convex -- solving as a MIP.

Presolve removed 16 rows and 0 columns
Presolve time: 0.00s
Presolved: 408 rows, 120 columns, 1351 nonzeros
Presolved model has 100 bilinear constraint(s)
Variable types: 120 continuous, 0 integer (0 binary)

Root relaxation: objective -1.208541e+01, 137 iterations, 0.00 seconds

    Nodes    |    Current Node    |     Objective Bounds      |     Work
 Expl Unexpl |  Obj  Depth IntInf | Incumbent    BestBd   Gap | It/Node Time

     0     0  -12.08541    0   84          -  -12.08541      -     -    0s
H    0     0                       1.3537869  -12.08541   993%     -    0s
     0     0   -8.57468    0  100    1.35379   -8.57468   733%     -    0s
     0     0   -7.56792    0   90    1.35379   -7.56792   659%     -    0s
H    0     0                      -0.7116986   -7.56792   963%     -    0s
     0     0   -7.46392    0   90   -0.71170   -7.46392   949%     -    0s
     0     0   -7.18807    0   90   -0.71170   -7.18807   910%     -    0s
H    0     0                      -0.9752512   -7.18807   637%     -    0s
     0     0   -7.18158    0   90   -0.97525   -7.18158   636%     -    0s
     0     0   -7.08864    0   90   -0.97525   -7.08864   627%     -    0s
     0     0   -7.08101    0   90   -0.97525   -7.08101   626%     -    0s
     0     0   -7.01796    0   90   -0.97525   -7.01796   620%     -    0s
     0     0   -7.00812    0   90   -0.97525   -7.00812   619%     -    0s
     0     0   -6.99899    0   90   -0.97525   -6.99899   618%     -    0s
     0     0   -6.99542    0   90   -0.97525   -6.99542   617%     -    0s
     0     0   -6.99227    0   90   -0.97525   -6.99227   617%     -    0s
H    0     0                      -3.9460125   -6.99227  77.2%     -    0s
H    0     0                      -3.9976893   -6.99227  74.9%     -    0s
H    0     0                      -3.9984525   -6.99227  74.9%     -    0s
     0     2   -6.99227    0   90   -3.99845   -6.99227  74.9%     -    0s
* 1028   944              34      -4.4438870   -6.30940  42.0%  28.6    0s
* 1029   944              34      -4.4438874   -6.30940  42.0%  28.6    0s
* 1030   944              33      -4.4438879   -6.30940  42.0%  28.6    0s
* 1410  1170              47      -4.5302857   -6.03894  33.3%  25.6    0s
* 1412  1170              48      -4.5303276   -6.03894  33.3%  25.5    0s
* 1413  1170              48      -4.5303280   -6.03894  33.3%  25.5    0s
* 1429  1170              28      -4.7736051   -6.03894  26.5%  25.4    0s
* 1649  1267              21      -5.2153334   -6.03894  15.8%  24.7    0s
* 1650  1267              22      -5.2153339   -6.03894  15.8%  24.7    0s
* 1752  1267              28      -5.5497328   -6.03894  8.81%  24.4    0s
* 2251   999              32      -5.5953560   -5.78955  3.47%  21.1    0s
* 2253   999              33      -5.5953568   -5.78955  3.47%  21.1    0s
* 2680  1067              29      -5.5993141   -5.66860  1.24%  18.6    0s
* 2681  1067              29      -5.5993399   -5.66860  1.24%  18.6    0s
* 2745  1067              17      -5.6478788   -5.65578  0.14%  18.4    0s
* 3275   332              18      -5.6479361   -5.64794  0.00%  16.6    0s

Cutting planes:
  RLT: 73
  BQP: 12
  PSD: 18

Explored 3881 nodes (54727 simplex iterations) in 0.77 seconds
Thread count was 32 (of 72 available processors)

Solution count 10: -5.64794 -5.64788 -5.59934 ... -4.53033
No other solutions better than -5.64794

Optimal solution found (tolerance 1.00e-04)
Best objective -5.647936083187e+00, best bound -5.647936083187e+00, gap 0.0000%

User-callback calls 8061, time in user-callback 0.00 sec



objective value: -5.6479360831867655
objective bound: -5.6479360831867655
x_opt: [0.0, 1.0, 1.0, 1.0, 1.0, 0.0, 0.0, 0.0, 0.27949787421281735, 1.0, 0.0, 0.22515607155294048, 1.0, 1.0, 1.0, 0.0, 0.0, 0.0, 0.0531007672132794, 0.4949207880657804]
GUROBI solution time: 0.7681488990783691




